\ENCODING=ISO-8859-1
\Problem name: temp1.mop

Minimize
 C_3_1: 6 x#1#1 + 7 x#1#2 + 59 x#1#3 + 61 x#1#4 + 23 x#1#5 + 83 x#1#6
        + 61 x#1#7 + 82 x#1#8 + 32 x#1#9 + 69 x#1#10 + 94 x#1#11 + 96 x#1#12
        + 55 x#1#13 + 55 x#1#14 + 66 x#1#15 + 41 x#2#1 + 33 x#2#2 + 18 x#2#3
        + 29 x#2#4 + 58 x#2#5 + 54 x#2#6 + 80 x#2#7 + 8 x#2#8 + x#2#9
        + 30 x#2#10 + 90 x#2#11 + 17 x#2#12 + 26 x#2#13 + 78 x#2#14 + 91 x#2#15
        + 84 x#3#1 + 11 x#3#2 + 74 x#3#3 + 28 x#3#4 + 29 x#3#5 + 19 x#3#6
        + 28 x#3#7 + 22 x#3#8 + 25 x#3#9 + 45 x#3#10 + 51 x#3#11 + 63 x#3#12
        + 70 x#3#13 + 72 x#3#14 + 19 x#3#15 + 44 x#4#1 + 11 x#4#2 + 71 x#4#3
        + 96 x#4#4 + 12 x#4#5 + 88 x#4#6 + 47 x#4#7 + 28 x#4#8 + 22 x#4#9
        + 49 x#4#10 + 94 x#4#11 + 79 x#4#12 + 59 x#4#13 + 71 x#4#14 + 68 x#4#15
        + 45 x#5#1 + 34 x#5#2 + 31 x#5#3 + 61 x#5#4 + 57 x#5#5 + 47 x#5#6
        + 45 x#5#7 + 93 x#5#8 + 78 x#5#9 + 96 x#5#10 + 43 x#5#11 + 11 x#5#12
        + 31 x#5#13 + 74 x#5#14 + 51 x#5#15 + 18 x#6#1 + 99 x#6#2 + 94 x#6#3
        + 38 x#6#4 + 20 x#6#5 + 53 x#6#6 + 39 x#6#7 + 18 x#6#8 + 52 x#6#9
        + 79 x#6#10 + 34 x#6#11 + 94 x#6#12 + 46 x#6#13 + 14 x#6#14 + 21 x#6#15
        + 30 x#7#1 + 65 x#7#2 + 98 x#7#3 + 76 x#7#4 + 83 x#7#5 + 74 x#7#6
        + 5 x#7#7 + 9 x#7#8 + 38 x#7#9 + 83 x#7#10 + 72 x#7#11 + 82 x#7#12
        + 11 x#7#13 + 54 x#7#14 + 61 x#7#15 + 92 x#8#1 + 10 x#8#2 + 57 x#8#3
        + 77 x#8#4 + 21 x#8#5 + 10 x#8#6 + 79 x#8#7 + 35 x#8#8 + 92 x#8#9
        + 53 x#8#10 + 90 x#8#11 + 28 x#8#12 + 93 x#8#13 + 48 x#8#14 + 6 x#8#15
        + 61 x#9#1 + 6 x#9#2 + 69 x#9#3 + 46 x#9#4 + 78 x#9#5 + 24 x#9#6
        + 30 x#9#7 + 11 x#9#8 + 43 x#9#9 + 29 x#9#10 + 9 x#9#11 + 72 x#9#12
        + 33 x#9#13 + 18 x#9#14 + 60 x#9#15 + 20 x#10#1 + 2 x#10#2 + 51 x#10#3
        + 62 x#10#4 + 86 x#10#5 + 91 x#10#6 + 97 x#10#7 + 19 x#10#8 + 80 x#10#9
        + 5 x#10#10 + 82 x#10#11 + 20 x#10#12 + 8 x#10#13 + 48 x#10#14
        + 45 x#10#15 + 85 x#11#1 + 43 x#11#2 + 61 x#11#3 + 41 x#11#4
        + 69 x#11#5 + 55 x#11#6 + 68 x#11#7 + 9 x#11#8 + 12 x#11#9 + 23 x#11#10
        + 72 x#11#11 + 23 x#11#12 + 41 x#11#13 + 10 x#11#14 + 98 x#11#15
        + 66 x#12#1 + 31 x#12#2 + 12 x#12#3 + 80 x#12#4 + 50 x#12#5 + 31 x#12#6
        + 30 x#12#7 + 65 x#12#8 + 71 x#12#9 + 62 x#12#10 + 64 x#12#11
        + 45 x#12#12 + 94 x#12#13 + 52 x#12#14 + x#12#15 + 16 x#13#1
        + 38 x#13#2 + 21 x#13#3 + 44 x#13#4 + 50 x#13#5 + 4 x#13#6 + 98 x#13#7
        + 53 x#13#8 + 55 x#13#9 + 57 x#13#10 + 54 x#13#11 + 82 x#13#12
        + 15 x#13#13 + 60 x#13#14 + 42 x#13#15 + 86 x#14#1 + 73 x#14#2
        + 91 x#14#3 + 24 x#14#4 + 28 x#14#5 + 36 x#14#6 + 54 x#14#7 + 22 x#14#8
        + 15 x#14#9 + 13 x#14#10 + 5 x#14#11 + 74 x#14#12 + 13 x#14#13
        + 98 x#14#14 + 29 x#14#15 + 65 x#15#1 + 95 x#15#2 + 24 x#15#3
        + 10 x#15#4 + 64 x#15#5 + 65 x#15#6 + 72 x#15#7 + 40 x#15#8 + 7 x#15#9
        + 28 x#15#10 + 36 x#15#11 + 8 x#15#12 + 62 x#15#13 + 68 x#15#14
        + 26 x#15#15
Subject To
 rows_1:  x#1#1 + x#1#2 + x#1#3 + x#1#4 + x#1#5 + x#1#6 + x#1#7 + x#1#8 + x#1#9
          + x#1#10 + x#1#11 + x#1#12 + x#1#13 + x#1#14 + x#1#15  = 1
 rows_2:  x#2#1 + x#2#2 + x#2#3 + x#2#4 + x#2#5 + x#2#6 + x#2#7 + x#2#8 + x#2#9
          + x#2#10 + x#2#11 + x#2#12 + x#2#13 + x#2#14 + x#2#15  = 1
 rows_3:  x#3#1 + x#3#2 + x#3#3 + x#3#4 + x#3#5 + x#3#6 + x#3#7 + x#3#8 + x#3#9
          + x#3#10 + x#3#11 + x#3#12 + x#3#13 + x#3#14 + x#3#15  = 1
 rows_4:  x#4#1 + x#4#2 + x#4#3 + x#4#4 + x#4#5 + x#4#6 + x#4#7 + x#4#8 + x#4#9
          + x#4#10 + x#4#11 + x#4#12 + x#4#13 + x#4#14 + x#4#15  = 1
 rows_5:  x#5#1 + x#5#2 + x#5#3 + x#5#4 + x#5#5 + x#5#6 + x#5#7 + x#5#8 + x#5#9
          + x#5#10 + x#5#11 + x#5#12 + x#5#13 + x#5#14 + x#5#15  = 1
 rows_6:  x#6#1 + x#6#2 + x#6#3 + x#6#4 + x#6#5 + x#6#6 + x#6#7 + x#6#8 + x#6#9
          + x#6#10 + x#6#11 + x#6#12 + x#6#13 + x#6#14 + x#6#15  = 1
 rows_7:  x#7#1 + x#7#2 + x#7#3 + x#7#4 + x#7#5 + x#7#6 + x#7#7 + x#7#8 + x#7#9
          + x#7#10 + x#7#11 + x#7#12 + x#7#13 + x#7#14 + x#7#15  = 1
 rows_8:  x#8#1 + x#8#2 + x#8#3 + x#8#4 + x#8#5 + x#8#6 + x#8#7 + x#8#8 + x#8#9
          + x#8#10 + x#8#11 + x#8#12 + x#8#13 + x#8#14 + x#8#15  = 1
 rows_9:  x#9#1 + x#9#2 + x#9#3 + x#9#4 + x#9#5 + x#9#6 + x#9#7 + x#9#8 + x#9#9
          + x#9#10 + x#9#11 + x#9#12 + x#9#13 + x#9#14 + x#9#15  = 1
 rows_10: x#10#1 + x#10#2 + x#10#3 + x#10#4 + x#10#5 + x#10#6 + x#10#7 + x#10#8
          + x#10#9 + x#10#10 + x#10#11 + x#10#12 + x#10#13 + x#10#14 + x#10#15
           = 1
 rows_11: x#11#1 + x#11#2 + x#11#3 + x#11#4 + x#11#5 + x#11#6 + x#11#7 + x#11#8
          + x#11#9 + x#11#10 + x#11#11 + x#11#12 + x#11#13 + x#11#14 + x#11#15
           = 1
 rows_12: x#12#1 + x#12#2 + x#12#3 + x#12#4 + x#12#5 + x#12#6 + x#12#7 + x#12#8
          + x#12#9 + x#12#10 + x#12#11 + x#12#12 + x#12#13 + x#12#14 + x#12#15
           = 1
 rows_13: x#13#1 + x#13#2 + x#13#3 + x#13#4 + x#13#5 + x#13#6 + x#13#7 + x#13#8
          + x#13#9 + x#13#10 + x#13#11 + x#13#12 + x#13#13 + x#13#14 + x#13#15
           = 1
 rows_14: x#14#1 + x#14#2 + x#14#3 + x#14#4 + x#14#5 + x#14#6 + x#14#7 + x#14#8
          + x#14#9 + x#14#10 + x#14#11 + x#14#12 + x#14#13 + x#14#14 + x#14#15
           = 1
 rows_15: x#15#1 + x#15#2 + x#15#3 + x#15#4 + x#15#5 + x#15#6 + x#15#7 + x#15#8
          + x#15#9 + x#15#10 + x#15#11 + x#15#12 + x#15#13 + x#15#14 + x#15#15
           = 1
 cols_1:  x#1#1 + x#2#1 + x#3#1 + x#4#1 + x#5#1 + x#6#1 + x#7#1 + x#8#1 + x#9#1
          + x#10#1 + x#11#1 + x#12#1 + x#13#1 + x#14#1 + x#15#1  = 1
 cols_2:  x#1#2 + x#2#2 + x#3#2 + x#4#2 + x#5#2 + x#6#2 + x#7#2 + x#8#2 + x#9#2
          + x#10#2 + x#11#2 + x#12#2 + x#13#2 + x#14#2 + x#15#2  = 1
 cols_3:  x#1#3 + x#2#3 + x#3#3 + x#4#3 + x#5#3 + x#6#3 + x#7#3 + x#8#3 + x#9#3
          + x#10#3 + x#11#3 + x#12#3 + x#13#3 + x#14#3 + x#15#3  = 1
 cols_4:  x#1#4 + x#2#4 + x#3#4 + x#4#4 + x#5#4 + x#6#4 + x#7#4 + x#8#4 + x#9#4
          + x#10#4 + x#11#4 + x#12#4 + x#13#4 + x#14#4 + x#15#4  = 1
 cols_5:  x#1#5 + x#2#5 + x#3#5 + x#4#5 + x#5#5 + x#6#5 + x#7#5 + x#8#5 + x#9#5
          + x#10#5 + x#11#5 + x#12#5 + x#13#5 + x#14#5 + x#15#5  = 1
 cols_6:  x#1#6 + x#2#6 + x#3#6 + x#4#6 + x#5#6 + x#6#6 + x#7#6 + x#8#6 + x#9#6
          + x#10#6 + x#11#6 + x#12#6 + x#13#6 + x#14#6 + x#15#6  = 1
 cols_7:  x#1#7 + x#2#7 + x#3#7 + x#4#7 + x#5#7 + x#6#7 + x#7#7 + x#8#7 + x#9#7
          + x#10#7 + x#11#7 + x#12#7 + x#13#7 + x#14#7 + x#15#7  = 1
 cols_8:  x#1#8 + x#2#8 + x#3#8 + x#4#8 + x#5#8 + x#6#8 + x#7#8 + x#8#8 + x#9#8
          + x#10#8 + x#11#8 + x#12#8 + x#13#8 + x#14#8 + x#15#8  = 1
 cols_9:  x#1#9 + x#2#9 + x#3#9 + x#4#9 + x#5#9 + x#6#9 + x#7#9 + x#8#9 + x#9#9
          + x#10#9 + x#11#9 + x#12#9 + x#13#9 + x#14#9 + x#15#9  = 1
 cols_10: x#1#10 + x#2#10 + x#3#10 + x#4#10 + x#5#10 + x#6#10 + x#7#10 + x#8#10
          + x#9#10 + x#10#10 + x#11#10 + x#12#10 + x#13#10 + x#14#10 + x#15#10
           = 1
 cols_11: x#1#11 + x#2#11 + x#3#11 + x#4#11 + x#5#11 + x#6#11 + x#7#11 + x#8#11
          + x#9#11 + x#10#11 + x#11#11 + x#12#11 + x#13#11 + x#14#11 + x#15#11
           = 1
 cols_12: x#1#12 + x#2#12 + x#3#12 + x#4#12 + x#5#12 + x#6#12 + x#7#12 + x#8#12
          + x#9#12 + x#10#12 + x#11#12 + x#12#12 + x#13#12 + x#14#12 + x#15#12
           = 1
 cols_13: x#1#13 + x#2#13 + x#3#13 + x#4#13 + x#5#13 + x#6#13 + x#7#13 + x#8#13
          + x#9#13 + x#10#13 + x#11#13 + x#12#13 + x#13#13 + x#14#13 + x#15#13
           = 1
 cols_14: x#1#14 + x#2#14 + x#3#14 + x#4#14 + x#5#14 + x#6#14 + x#7#14 + x#8#14
          + x#9#14 + x#10#14 + x#11#14 + x#12#14 + x#13#14 + x#14#14 + x#15#14
           = 1
 cols_15: x#1#15 + x#2#15 + x#3#15 + x#4#15 + x#5#15 + x#6#15 + x#7#15 + x#8#15
          + x#9#15 + x#10#15 + x#11#15 + x#12#15 + x#13#15 + x#14#15 + x#15#15
           = 1
End
